NAME          COPTPROB
OBJSENSE
  MIN
ROWS
 N  __OBJ___
 L  C16     
 L  C20     
 L  C37     
 L  C52     
 L  C70     
 L  C85     
 L  C95     
 L  C103    
 L  C115    
 L  C129    
 L  C191    
 L  C195    
COLUMNS
    MARKER    'MARKER'                 'INTORG'
    x37       __OBJ___  499
    x37       C70       -1
    x37       C129      -1
    x61       __OBJ___  15
    x61       C115      -1
    x98       __OBJ___  632
    x98       C52       -1
    x98       C85       -1
    x132      __OBJ___  278
    x132      C37       -1
    x132      C115      -1
    x136      __OBJ___  369
    x136      C52       -1
    x136      C95       -1
    x143      __OBJ___  143
    x143      C20       -1
    x325      __OBJ___  47
    x325      C191      -1
    x369      __OBJ___  3
    x369      C70       -1
    x391      __OBJ___  529
    x391      C85       -1
    x391      C103      -1
    x407      __OBJ___  540
    x407      C129      -1
    x407      C191      -1
    x455      __OBJ___  412
    x455      C16       -1
    x455      C52       -1
    x520      __OBJ___  310
    x520      C85       -1
    x520      C115      -1
    x536      __OBJ___  354
    x536      C103      -1
    x536      C191      -1
    x619      __OBJ___  131
    x619      C16       -1
    x619      C70       -1
    x625      __OBJ___  57
    x625      C95       -1
    x647      __OBJ___  165
    x647      C20       -1
    x647      C95       -1
    x735      __OBJ___  149
    x735      C20       -1
    x735      C195      -1
    x793      __OBJ___  284
    x793      C37       -1
    x793      C195      -1
    MARKER    'MARKER'                 'INTEND'
RHS
    RHS       __OBJ___  -16115
    RHS       C16       -1
    RHS       C20       -1
    RHS       C37       -1
    RHS       C52       -1
    RHS       C70       -1
    RHS       C85       -1
    RHS       C95       -1
    RHS       C103      -1
    RHS       C115      -1
    RHS       C129      -1
    RHS       C191      -1
    RHS       C195      -1
BOUNDS
 UP BOUND     x37       1
 UP BOUND     x61       1
 UP BOUND     x98       1
 UP BOUND     x132      1
 UP BOUND     x136      1
 UP BOUND     x143      1
 UP BOUND     x325      1
 UP BOUND     x369      1
 UP BOUND     x391      1
 UP BOUND     x407      1
 UP BOUND     x455      1
 UP BOUND     x520      1
 UP BOUND     x536      1
 UP BOUND     x619      1
 UP BOUND     x625      1
 UP BOUND     x647      1
 UP BOUND     x735      1
 UP BOUND     x793      1
ENDATA
